c uprop, v00.0, 
c reading from data/prog808.c.cnf
c done reading: 0
p cnf 182 874
-87 -108 0
-87 -104 0
87 104 108 0
-81 104 108 0
-81 -104 -108 0
81 104 -108 0
81 -104 108 0
87 -99 0
-97 -99 0
-87 97 99 0
-87 -92 97 0
87 -92 -97 0
87 92 97 0
-87 92 -97 0
-88 99 0
-85 -88 0
85 88 -99 0
-83 85 -99 0
-83 -85 99 0
83 85 99 0
83 -85 -99 0
-82 88 0
-79 -82 0
79 82 -88 0
79 -88 -106 0
-79 88 -106 0
79 88 106 0
-79 -88 106 0
82 -110 0
-101 -110 0
-82 101 110 0
-82 101 -111 0
82 -101 -111 0
82 101 111 0
-82 -101 111 0
110 -112 0
-94 -112 0
94 -110 112 0
94 -110 -113 0
-94 110 -113 0
94 110 113 0
-94 -110 113 0
112 -114 0
-90 -114 0
90 -112 114 0
90 -112 -115 0
-90 112 -115 0
90 112 115 0
-90 -112 115 0
104 -116 0
108 -116 0
-104 -108 116 0
-104 -108 -117 0
104 108 -117 0
-104 108 117 0
104 -108 117 0
-97 -104 118 0
-97 -116 118 0
-104 -116 118 0
97 104 -118 0
97 116 -118 0
104 116 -118 0
97 -118 -119 0
104 -118 -119 0
116 -118 -119 0
-97 118 119 0
-104 118 119 0
-116 118 119 0
-97 -104 -116 119 0
97 104 116 -119 0
-85 -97 120 0
-85 -118 120 0
-97 -118 120 0
85 97 -120 0
85 118 -120 0
97 118 -120 0
85 -120 -121 0
97 -120 -121 0
118 -120 -121 0
-85 120 121 0
-97 120 121 0
-118 120 121 0
-85 -97 -118 121 0
85 97 118 -121 0
-79 -85 122 0
-79 -120 122 0
-85 -120 122 0
79 85 -122 0
79 120 -122 0
85 120 -122 0
-77 79 -122 0
-77 85 -122 0
-77 120 -122 0
77 -79 122 0
77 -85 122 0
77 -120 122 0
77 -79 -85 -120 0
-77 79 85 120 0
76 -79 -101 0
76 -101 -122 0
76 -79 -122 0
-76 79 101 0
-76 101 122 0
-76 79 122 0
-75 -76 101 0
-75 -76 79 0
-75 -76 122 0
75 76 -101 0
75 76 -79 0
75 76 -122 0
75 -79 -101 -122 0
-75 79 101 122 0
74 -94 -101 0
74 -76 -94 0
74 -76 -101 0
-74 94 101 0
-74 76 94 0
-74 76 101 0
-73 -74 94 0
-73 -74 101 0
-73 -74 76 0
73 74 -94 0
73 74 -101 0
73 74 -76 0
73 -76 -94 -101 0
-73 76 94 101 0
72 -90 -94 0
72 -74 -90 0
72 -74 -94 0
-72 90 94 0
-72 74 90 0
-72 74 94 0
-72 90 -107 0
-72 94 -107 0
-72 74 -107 0
72 -90 107 0
72 -94 107 0
72 -74 107 0
-74 -90 -94 107 0
74 90 94 -107 0
90 -103 0
72 -103 0
-72 -90 103 0
-72 -90 -96 0
72 90 -96 0
72 -90 96 0
-72 90 96 0
-84 119 0
-84 108 0
84 -108 -119 0
-78 -108 -119 0
-78 108 119 0
78 108 -119 0
78 -108 119 0
100 -104 -121 0
-84 100 -121 0
-84 100 -104 0
-100 104 121 0
84 -100 121 0
84 -100 104 0
-93 -100 121 0
-93 -100 104 0
84 -93 -100 0
93 100 -121 0
93 100 -104 0
-84 93 100 0
-84 93 -104 -121 0
84 -93 104 121 0
-77 89 -97 0
-77 89 -100 0
89 -97 -100 0
77 -89 97 0
77 -89 100 0
-89 97 100 0
-71 77 -89 0
-71 -89 97 0
-71 -89 100 0
71 -77 89 0
71 89 -97 0
71 89 -100 0
71 -77 -97 -100 0
-71 77 97 100 0
70 -75 -85 0
70 -75 -89 0
70 -85 -89 0
-70 75 85 0
-70 75 89 0
-70 85 89 0
-69 -70 75 0
-69 -70 85 0
-69 -70 89 0
69 70 -75 0
69 70 -85 0
69 70 -89 0
69 -75 -85 -89 0
-69 75 85 89 0
68 -73 -79 0
68 -70 -73 0
68 -70 -79 0
-68 73 79 0
-68 70 73 0
-68 70 79 0
-67 -68 73 0
-67 -68 79 0
-67 -68 70 0
67 68 -73 0
67 68 -79 0
67 68 -70 0
67 -70 -73 -79 0
-67 70 73 79 0
66 -101 -107 0
66 -68 -107 0
66 -68 -101 0
-66 101 107 0
-66 68 107 0
-66 68 101 0
-65 -66 107 0
-65 -66 101 0
-65 -66 68 0
65 66 -107 0
65 66 -101 0
65 66 -68 0
65 -68 -101 -107 0
-65 68 101 107 0
64 -94 -96 0
64 -66 -96 0
64 -66 -94 0
-64 94 96 0
-64 66 96 0
-64 66 94 0
-63 -64 96 0
-63 -64 94 0
-63 -64 66 0
63 64 -96 0
63 64 -94 0
63 64 -66 0
63 -66 -94 -96 0
-63 66 94 96 0
62 -90 -103 0
62 -64 -103 0
62 -64 -90 0
-62 90 103 0
-62 64 103 0
-62 64 90 0
-61 -62 103 0
-61 -62 90 0
-61 -62 64 0
61 62 -103 0
61 62 -90 0
61 62 -64 0
61 -64 -90 -103 0
-61 64 90 103 0
-60 93 0
-60 108 0
60 -93 -108 0
-59 -93 -108 0
-59 93 108 0
59 -93 108 0
59 93 -108 0
58 -71 -104 0
58 -60 -71 0
58 -60 -104 0
-58 71 104 0
-58 60 71 0
-58 60 104 0
-57 -58 71 0
-57 -58 104 0
-57 -58 60 0
57 58 -71 0
57 58 -104 0
57 58 -60 0
57 -60 -71 -104 0
-57 60 71 104 0
56 -69 -97 0
56 -58 -69 0
56 -58 -97 0
-56 69 97 0
-56 58 69 0
-56 58 97 0
-56 69 -123 0
-56 97 -123 0
-56 58 -123 0
56 -69 123 0
56 -97 123 0
56 -58 123 0
-58 -69 -97 123 0
58 69 97 -123 0
-67 -85 124 0
-56 -67 124 0
-56 -85 124 0
67 85 -124 0
56 67 -124 0
56 85 -124 0
67 -124 -125 0
85 -124 -125 0
56 -124 -125 0
-67 124 125 0
-85 124 125 0
-56 124 125 0
-56 -67 -85 125 0
56 67 85 -125 0
-65 -79 126 0
-65 -124 126 0
-79 -124 126 0
65 79 -126 0
65 124 -126 0
79 124 -126 0
65 -126 -127 0
79 -126 -127 0
124 -126 -127 0
-65 126 127 0
-79 126 127 0
-124 126 127 0
-65 -79 -124 127 0
65 79 124 -127 0
-63 -101 128 0
-63 -126 128 0
-101 -126 128 0
63 101 -128 0
63 126 -128 0
101 126 -128 0
63 -128 -129 0
101 -128 -129 0
126 -128 -129 0
-63 128 129 0
-101 128 129 0
-126 128 129 0
-63 -101 -126 129 0
63 101 126 -129 0
-61 -94 130 0
-61 -128 130 0
-94 -128 130 0
61 94 -130 0
61 128 -130 0
94 128 -130 0
61 -130 -131 0
94 -130 -131 0
128 -130 -131 0
-61 130 131 0
-94 130 131 0
-128 130 131 0
-61 -94 -128 131 0
61 94 128 -131 0
-62 -90 132 0
-62 -130 132 0
-90 -130 132 0
62 90 -132 0
62 130 -132 0
90 130 -132 0
62 -132 -133 0
90 -132 -133 0
130 -132 -133 0
-62 132 133 0
-90 132 133 0
-130 132 133 0
-62 -90 -130 133 0
62 90 130 -133 0
-108 -134 0
-117 -134 0
108 117 134 0
108 117 -135 0
-108 -117 -135 0
-108 117 135 0
108 -117 135 0
134 -136 0
-78 -136 0
78 -134 136 0
78 -134 -137 0
-78 134 -137 0
78 134 137 0
-78 -134 137 0
136 -138 0
-59 -138 0
59 -136 138 0
59 -136 -139 0
-59 136 -139 0
59 136 139 0
-59 -136 139 0
138 -140 0
-57 -140 0
57 -138 140 0
57 -138 -141 0
-57 138 -141 0
57 138 141 0
-57 -138 141 0
140 -142 0
-123 -142 0
123 -140 142 0
123 -140 -143 0
-123 140 -143 0
123 140 143 0
-123 -140 143 0
142 -144 0
-125 -144 0
125 -142 144 0
125 -142 -145 0
-125 142 -145 0
125 142 145 0
-125 -142 145 0
144 -146 0
-127 -146 0
127 -144 146 0
127 -144 -147 0
-127 144 -147 0
127 144 147 0
-127 -144 147 0
146 -148 0
-129 -148 0
129 -146 148 0
129 -146 -149 0
-129 146 -149 0
129 146 149 0
-129 -146 149 0
148 -150 0
-131 -150 0
131 -148 150 0
131 -148 -151 0
-131 148 -151 0
131 148 151 0
-131 -148 151 0
150 -152 0
-133 -152 0
133 -150 152 0
133 -150 -153 0
-133 150 -153 0
133 150 153 0
-133 -150 153 0
152 -154 0
-132 -154 0
132 -152 154 0
132 -152 -155 0
-132 152 -155 0
132 152 155 0
-132 -152 155 0
-156 -158 0
-158 -159 0
156 158 159 0
156 159 -161 0
-156 -159 -161 0
-156 159 161 0
156 -159 161 0
158 -162 0
-162 -163 0
-158 162 163 0
-158 163 -165 0
158 -163 -165 0
158 163 165 0
-158 -163 165 0
162 -166 0
-166 -167 0
-162 166 167 0
-162 167 -169 0
162 -167 -169 0
162 167 169 0
-162 -167 169 0
166 -170 0
-170 -171 0
-166 170 171 0
-166 171 -173 0
166 -171 -173 0
166 171 173 0
-166 -171 173 0
170 -174 0
-174 -175 0
-170 174 175 0
-170 175 -177 0
170 -175 -177 0
170 175 177 0
-170 -175 177 0
174 -178 0
-178 -179 0
-174 178 179 0
-109 -174 179 0
-109 174 -179 0
109 174 179 0
109 -174 -179 0
-105 178 0
-105 -181 0
105 -178 181 0
-98 -178 181 0
-98 178 -181 0
98 178 181 0
98 -178 -181 0
-86 163 0
-86 156 0
86 -156 -163 0
-80 -156 -163 0
-80 156 163 0
80 156 -163 0
80 -156 163 0
102 -159 -167 0
-86 102 -167 0
-86 102 -159 0
-102 159 167 0
86 -102 167 0
86 -102 159 0
-95 -102 167 0
-95 -102 159 0
86 -95 -102 0
95 102 -167 0
95 102 -159 0
-86 95 102 0
-86 95 -159 -167 0
86 -95 159 167 0
91 -163 -171 0
91 -102 -171 0
91 -102 -163 0
-91 163 171 0
-91 102 171 0
-91 102 163 0
-91 -157 171 0
-91 -157 163 0
-91 102 -157 0
91 157 -171 0
91 157 -163 0
91 -102 157 0
-102 157 -163 -171 0
102 -157 163 171 0
160 -167 -175 0
-91 160 -175 0
-91 160 -167 0
-160 167 175 0
91 -160 175 0
91 -160 167 0
-160 -164 175 0
-160 -164 167 0
91 -160 -164 0
160 164 -175 0
160 164 -167 0
-91 160 164 0
-91 164 -167 -175 0
91 -164 167 175 0
168 -171 -179 0
-160 168 -179 0
-160 168 -171 0
-168 171 179 0
160 -168 179 0
160 -168 171 0
-168 -172 179 0
-168 171 -172 0
160 -168 -172 0
168 172 -179 0
168 -171 172 0
-160 168 172 0
-160 -171 172 -179 0
160 171 -172 179 0
-175 176 -181 0
-168 176 -181 0
-168 -175 176 0
175 -176 181 0
168 -176 181 0
168 175 -176 0
-176 -180 181 0
175 -176 -180 0
168 -176 -180 0
176 180 -181 0
-175 176 180 0
-168 176 180 0
-168 -175 180 -181 0
168 175 -180 181 0
179 -182 0
176 -182 0
-176 -179 182 0
-55 -176 -179 0
-55 176 179 0
55 176 -179 0
55 -176 179 0
-54 181 0
-54 182 0
54 -181 -182 0
-53 -181 -182 0
-53 181 182 0
53 -181 182 0
53 181 -182 0
-52 157 0
-52 156 0
52 -156 -157 0
-51 -156 -157 0
-51 156 157 0
51 156 -157 0
51 -156 157 0
50 -159 -164 0
50 -52 -164 0
50 -52 -159 0
-50 159 164 0
-50 52 164 0
-50 52 159 0
-49 -50 164 0
-49 -50 159 0
-49 -50 52 0
49 50 -164 0
49 50 -159 0
49 50 -52 0
49 -52 -159 -164 0
-49 52 159 164 0
48 -163 -172 0
48 -50 -172 0
48 -50 -163 0
-48 163 172 0
-48 50 172 0
-48 50 163 0
-47 -48 172 0
-47 -48 163 0
-47 -48 50 0
47 48 -172 0
47 48 -163 0
47 48 -50 0
47 -50 -163 -172 0
-47 50 163 172 0
46 -167 -180 0
46 -48 -180 0
46 -48 -167 0
-46 167 180 0
-46 48 180 0
-46 48 167 0
-45 -46 180 0
-45 -46 167 0
-45 -46 48 0
45 46 -180 0
45 46 -167 0
45 46 -48 0
45 -48 -167 -180 0
-45 48 167 180 0
44 -55 -171 0
44 -46 -55 0
44 -46 -171 0
-44 55 171 0
-44 46 55 0
-44 46 171 0
-43 -44 55 0
-43 -44 171 0
-43 -44 46 0
43 44 -55 0
43 44 -171 0
43 44 -46 0
43 -46 -55 -171 0
-43 46 55 171 0
42 -53 -175 0
42 -44 -53 0
42 -44 -175 0
-42 53 175 0
-42 44 53 0
-42 44 175 0
-41 -42 53 0
-41 -42 175 0
-41 -42 44 0
41 42 -53 0
41 42 -175 0
41 42 -44 0
41 -44 -53 -175 0
-41 44 53 175 0
40 -54 -179 0
40 -42 -54 0
40 -42 -179 0
-40 54 179 0
-40 42 54 0
-40 42 179 0
-39 -40 54 0
-39 -40 179 0
-39 -40 42 0
39 40 -54 0
39 40 -179 0
39 40 -42 0
39 -42 -54 -179 0
-39 42 54 179 0
-38 181 0
-38 40 0
38 -40 -181 0
-37 -40 -181 0
-37 40 181 0
37 40 -181 0
37 -40 181 0
-36 -156 0
-36 -159 0
36 156 159 0
-35 156 159 0
-35 -156 -159 0
35 -156 159 0
35 156 -159 0
-34 36 0
-34 -80 0
34 -36 80 0
-33 -36 80 0
-33 36 -80 0
33 36 80 0
33 -36 -80 0
-32 34 0
-32 -95 0
32 -34 95 0
-31 -34 95 0
-31 34 -95 0
31 34 95 0
31 -34 -95 0
-30 32 0
-30 -51 0
30 -32 51 0
-29 -32 51 0
-29 32 -51 0
29 32 51 0
29 -32 -51 0
-28 30 0
-28 -49 0
28 -30 49 0
-27 -30 49 0
-27 30 -49 0
27 30 49 0
27 -30 -49 0
-26 28 0
-26 -47 0
26 -28 47 0
-25 -28 47 0
-25 28 -47 0
25 28 47 0
25 -28 -47 0
-24 26 0
-24 -45 0
24 -26 45 0
-23 -26 45 0
-23 26 -45 0
23 26 45 0
23 -26 -45 0
-22 24 0
-22 -43 0
22 -24 43 0
-21 -24 43 0
-21 24 -43 0
21 24 43 0
21 -24 -43 0
-20 22 0
-20 -41 0
20 -22 41 0
-19 -22 41 0
-19 22 -41 0
19 22 41 0
19 -22 -41 0
-18 20 0
-18 -39 0
18 -20 39 0
-17 -20 39 0
-17 20 -39 0
17 20 39 0
17 -20 -39 0
-16 18 0
-16 -37 0
16 -18 37 0
-15 -18 37 0
-15 18 -37 0
15 18 37 0
15 -18 -37 0
-14 16 0
-14 -38 0
14 -16 38 0
-13 -16 38 0
-13 16 -38 0
13 16 38 0
13 -16 -38 0
-12 108 0
-12 156 0
12 -108 -156 0
-108 156 0
108 -156 0
11 -117 -159 0
11 -12 -117 0
11 -12 -159 0
-11 117 159 0
-11 12 117 0
-11 12 159 0
-11 117 0
-11 159 0
-11 12 0
12 117 159 0
10 -78 -80 0
10 -11 -78 0
10 -11 -80 0
-10 78 80 0
-10 11 78 0
-10 11 80 0
10 -78 0
10 -80 0
10 -11 0
-11 -78 -80 0
9 -59 -95 0
9 -10 -59 0
9 -10 -95 0
-9 59 95 0
-9 10 59 0
-9 10 95 0
9 -59 0
9 -95 0
9 -10 0
-10 -59 -95 0
8 -51 -57 0
8 -9 -57 0
8 -9 -51 0
-8 51 57 0
-8 9 57 0
-8 9 51 0
8 -57 0
8 -51 0
8 -9 0
-9 -51 -57 0
7 -49 -123 0
7 -8 -123 0
7 -8 -49 0
-7 49 123 0
-7 8 123 0
-7 8 49 0
7 -123 0
7 -49 0
7 -8 0
-8 -49 -123 0
6 -47 -125 0
6 -7 -125 0
6 -7 -47 0
-6 47 125 0
-6 7 125 0
-6 7 47 0
-6 125 0
-6 47 0
-6 7 0
7 47 125 0
5 -45 -127 0
5 -6 -127 0
5 -6 -45 0
-5 45 127 0
-5 6 127 0
-5 6 45 0
5 -127 0
5 -45 0
5 -6 0
-6 -45 -127 0
4 -43 -129 0
4 -5 -129 0
4 -5 -43 0
-4 43 129 0
-4 5 129 0
-4 5 43 0
4 -129 0
4 -43 0
4 -5 0
-5 -43 -129 0
3 -41 -131 0
3 -4 -131 0
3 -4 -41 0
-3 41 131 0
-3 4 131 0
-3 4 41 0
3 -131 0
3 -41 0
3 -4 0
-4 -41 -131 0
2 -39 -133 0
2 -3 -133 0
2 -3 -39 0
-2 39 133 0
-2 3 133 0
-2 3 39 0
2 -133 0
2 -39 0
2 -3 0
-3 -39 -133 0
1 -37 -132 0
1 -2 -132 0
1 -2 -37 0
-1 37 132 0
-1 2 132 0
-1 2 37 0
1 -132 0
1 -37 0
1 -2 0
-2 -37 -132 0
-1 -38 0
1 -38 0
-1 38 0
